(benchmark gametime
:status unknown
:logic QF_AUFBV
:extrafuns ((gtINDEX69  BitVec[32]))
:extrafuns ((gtFIELD__bitsForTID0__gtAGG____anonstruct_D_Work_4  Array[32:32]))
:extrafuns ((gtINDEX70  BitVec[32]))
:extrafuns ((gtAGG__rtDWork  BitVec[32]))
:extrafuns ((gtINDEX67  BitVec[32]))
:extrafuns ((gtINDEX68  BitVec[32]))
:extrafuns ((gtINDEX65  BitVec[32]))
:extrafuns ((gtINDEX66  BitVec[32]))
:extrafuns ((gtINDEX63  BitVec[32]))
:extrafuns ((gtINDEX64  BitVec[32]))
:extrafuns ((gtINDEX62  BitVec[32]))
:extrafuns ((gtINDEX61  BitVec[32]))
:extrafuns ((gtINDEX60  BitVec[32]))
:extrafuns ((gtINDEX59  BitVec[32]))
:extrafuns ((gtINDEX57  BitVec[32]))
:extrafuns ((gtINDEX58  BitVec[32]))
:extrafuns ((gtINDEX55  BitVec[32]))
:extrafuns ((gtINDEX56  BitVec[32]))
:extrafuns ((gtINDEX53  BitVec[32]))
:extrafuns ((gtINDEX54  BitVec[32]))
:extrafuns ((gtINDEX51  BitVec[32]))
:extrafuns ((gtINDEX52  BitVec[32]))
:extrafuns ((gtINDEX49  BitVec[32]))
:extrafuns ((gtINDEX50  BitVec[32]))
:extrafuns ((gtINDEX48  BitVec[32]))
:extrafuns ((gtINDEX46  BitVec[32]))
:extrafuns ((gtINDEX47  BitVec[32]))
:extrafuns ((gtINDEX44  BitVec[32]))
:extrafuns ((gtINDEX45  BitVec[32]))
:extrafuns ((gtINDEX42  BitVec[32]))
:extrafuns ((gtINDEX43  BitVec[32]))
:extrafuns ((gtINDEX40  BitVec[32]))
:extrafuns ((gtINDEX41  BitVec[32]))
:extrafuns ((gtINDEX38  BitVec[32]))
:extrafuns ((gtINDEX39  BitVec[32]))
:extrafuns ((gtINDEX37  BitVec[32]))
:extrafuns ((gtINDEX35  BitVec[32]))
:extrafuns ((gtINDEX36  BitVec[32]))
:extrafuns ((gtINDEX34  BitVec[32]))
:extrafuns ((gtINDEX32  BitVec[32]))
:extrafuns ((gtINDEX33  BitVec[32]))
:extrafuns ((gtINDEX30  BitVec[32]))
:extrafuns ((gtINDEX31  BitVec[32]))
:extrafuns ((gtINDEX29  BitVec[32]))
:extrafuns ((gtINDEX28  BitVec[32]))
:extrafuns ((gtINDEX27  BitVec[32]))
:extrafuns ((gtINDEX26  BitVec[32]))
:extrafuns ((gtINDEX25  BitVec[32]))
:extrafuns ((gtINDEX23  BitVec[32]))
:extrafuns ((gtINDEX24  BitVec[32]))
:extrafuns ((gtINDEX21  BitVec[32]))
:extrafuns ((gtINDEX22  BitVec[32]))
:extrafuns ((gtINDEX19  BitVec[32]))
:extrafuns ((gtINDEX20  BitVec[32]))
:extrafuns ((gtINDEX17  BitVec[32]))
:extrafuns ((gtINDEX18  BitVec[32]))
:extrafuns ((gtINDEX15  BitVec[32]))
:extrafuns ((gtINDEX16  BitVec[32]))
:extrafuns ((gtINDEX14  BitVec[32]))
:extrafuns ((gtINDEX12  BitVec[32]))
:extrafuns ((gtINDEX13  BitVec[32]))
:extrafuns ((gtINDEX10  BitVec[32]))
:extrafuns ((gtINDEX11  BitVec[32]))
:extrafuns ((gtINDEX8  BitVec[32]))
:extrafuns ((gtINDEX9  BitVec[32]))
:extrafuns ((gtINDEX6  BitVec[32]))
:extrafuns ((gtINDEX7  BitVec[32]))
:extrafuns ((gtINDEX4  BitVec[32]))
:extrafuns ((gtINDEX5  BitVec[32]))
:extrafuns ((gtINDEX2  BitVec[32]))
:extrafuns ((gtINDEX3  BitVec[32]))
:extrafuns ((gtINDEX0  BitVec[32]))
:extrafuns ((gtINDEX1  BitVec[32]))
:extrafuns ((gtFIELD__is_Eng__gtAGG____anonstruct_bitsForTID0_5_1_  Array[32:1]))
:extrafuns ((gtFIELD__is_Eng__gtAGG____anonstruct_bitsForTID0_5_2_  Array[32:1]))
:extrafuns ((sf_previousEvent_1_  BitVec[32]))
:extrafuns ((sfEvent__2_  BitVec[32]))
:extrafuns ((gtFIELD__is_Eng__gtAGG____anonstruct_bitsForTID0_5  Array[32:1]))
:extrafuns ((gtFIELD__sent__gtAGG____anonstruct_D_Work_4_1_  Array[32:32]))
:extrafuns ((gtFIELD__sent__gtAGG____anonstruct_D_Work_4_2_  Array[32:32]))
:extrafuns ((gtFIELD__is_active_Eng__gtAGG____anonstruct_bitsForTID0_5  Array[32:1]))
:extrafuns ((sfEvent__1_  BitVec[32]))
:extrafuns ((gtFIELD__is_PURI__gtAGG____anonstruct_bitsForTID0_5  Array[32:2]))
:extrafuns ((gtFIELD__is_active_PURI__gtAGG____anonstruct_bitsForTID0_5  Array[32:1]))
:extrafuns ((gtFIELD__is_PVRP__gtAGG____anonstruct_bitsForTID0_5  Array[32:2]))
:extrafuns ((gtFIELD__is_active_PVRP__gtAGG____anonstruct_bitsForTID0_5  Array[32:1]))
:extrafuns ((gtFIELD__is_active_PPVARP__gtAGG____anonstruct_bitsForTID0_5  Array[32:1]))
:extrafuns ((gtFIELD__is_active_PLRI__gtAGG____anonstruct_bitsForTID0_5  Array[32:1]))
:extrafuns ((gtFIELD__temporalCounter_i1__gtAGG____anonstruct_D_Work_4  Array[32:32]))
:extrafuns ((gtFIELD__temporalCounter_i1__gtAGG____anonstruct_D_Work_4_1_  Array[32:32]))
:extrafuns ((gtFIELD__is_PAVI__gtAGG____anonstruct_bitsForTID0_5  Array[32:3]))
:extrafuns ((gtFIELD__is_PAVI__gtAGG____anonstruct_bitsForTID0_5_1_  Array[32:3]))
:extrafuns ((gtFIELD__n_t__gtAGG____anonstruct_D_Work_4  Array[32:32]))
:extrafuns ((gtFIELD__n_t__gtAGG____anonstruct_D_Work_4_1_  Array[32:32]))
:extrafuns ((gtFIELD__is_active_PAVI__gtAGG____anonstruct_bitsForTID0_5  Array[32:1]))
:extrafuns ((sfEvent_  BitVec[32]))
:extrafuns ((gtFIELD__sent__gtAGG____anonstruct_D_Work_4  Array[32:32]))
:extrapreds ((constraint124 ))
:extrapreds ((constraint123 ))
:extrapreds ((constraint122 ))
:extrapreds ((constraint121 ))
:extrapreds ((constraint120 ))
:extrapreds ((constraint119 ))
:extrapreds ((constraint118 ))
:extrapreds ((constraint117 ))
:extrapreds ((constraint116 ))
:extrapreds ((constraint115 ))
:extrapreds ((constraint114 ))
:extrapreds ((constraint113 ))
:extrapreds ((constraint112 ))
:extrapreds ((constraint111 ))
:extrapreds ((constraint110 ))
:extrapreds ((constraint109 ))
:extrapreds ((constraint108 ))
:extrapreds ((constraint107 ))
:extrapreds ((constraint106 ))
:extrapreds ((constraint105 ))
:extrapreds ((constraint104 ))
:extrapreds ((constraint103 ))
:extrapreds ((constraint102 ))
:extrapreds ((constraint101 ))
:extrapreds ((constraint100 ))
:extrapreds ((constraint99 ))
:extrapreds ((constraint98 ))
:extrapreds ((constraint97 ))
:extrapreds ((constraint96 ))
:extrapreds ((constraint95 ))
:extrapreds ((constraint94 ))
:extrapreds ((constraint93 ))
:extrapreds ((constraint92 ))
:extrapreds ((constraint91 ))
:extrapreds ((constraint90 ))
:extrapreds ((constraint89 ))
:extrapreds ((constraint88 ))
:extrapreds ((constraint87 ))
:extrapreds ((constraint86 ))
:extrapreds ((constraint85 ))
:extrapreds ((constraint84 ))
:extrapreds ((constraint83 ))
:extrapreds ((constraint82 ))
:extrapreds ((constraint81 ))
:extrapreds ((constraint80 ))
:extrapreds ((constraint79 ))
:extrapreds ((constraint78 ))
:extrapreds ((constraint77 ))
:extrapreds ((constraint76 ))
:extrapreds ((constraint75 ))
:extrapreds ((constraint74 ))
:extrapreds ((constraint73 ))
:extrapreds ((constraint72 ))
:extrapreds ((constraint71 ))
:extrapreds ((constraint70 ))
:extrapreds ((constraint69 ))
:extrapreds ((constraint68 ))
:extrapreds ((constraint67 ))
:extrapreds ((constraint66 ))
:extrapreds ((constraint65 ))
:extrapreds ((constraint64 ))
:extrapreds ((constraint63 ))
:extrapreds ((constraint62 ))
:extrapreds ((constraint61 ))
:extrapreds ((constraint60 ))
:extrapreds ((constraint59 ))
:extrapreds ((constraint58 ))
:extrapreds ((constraint57 ))
:extrapreds ((constraint56 ))
:extrapreds ((constraint55 ))
:extrapreds ((constraint54 ))
:extrapreds ((constraint53 ))
:extrapreds ((constraint52 ))
:extrapreds ((constraint51 ))
:extrapreds ((constraint50 ))
:extrapreds ((constraint49 ))
:extrapreds ((constraint48 ))
:extrapreds ((constraint47 ))
:extrapreds ((constraint46 ))
:extrapreds ((constraint45 ))
:extrapreds ((constraint44 ))
:extrapreds ((constraint43 ))
:extrapreds ((constraint42 ))
:extrapreds ((constraint41 ))
:extrapreds ((constraint40 ))
:extrapreds ((constraint39 ))
:extrapreds ((constraint38 ))
:extrapreds ((constraint37 ))
:extrapreds ((constraint36 ))
:extrapreds ((constraint35 ))
:extrapreds ((constraint34 ))
:extrapreds ((constraint33 ))
:extrapreds ((constraint32 ))
:extrapreds ((constraint31 ))
:extrapreds ((constraint30 ))
:extrapreds ((constraint29 ))
:extrapreds ((constraint28 ))
:extrapreds ((constraint27 ))
:extrapreds ((constraint26 ))
:extrapreds ((constraint25 ))
:extrapreds ((constraint24 ))
:extrapreds ((constraint23 ))
:extrapreds ((constraint22 ))
:extrapreds ((constraint21 ))
:extrapreds ((constraint20 ))
:extrapreds ((constraint19 ))
:extrapreds ((constraint18 ))
:extrapreds ((constraint17 ))
:extrapreds ((constraint16 ))
:extrapreds ((constraint15 ))
:extrapreds ((constraint14 ))
:extrapreds ((constraint13 ))
:extrapreds ((constraint12 ))
:extrapreds ((constraint11 ))
:extrapreds ((constraint10 ))
:extrapreds ((constraint9 ))
:extrapreds ((constraint8 ))
:extrapreds ((constraint7 ))
:extrapreds ((constraint6 ))
:extrapreds ((constraint5 ))
:extrapreds ((constraint4 ))
:extrapreds ((constraint3 ))
:extrapreds ((constraint2 ))
:extrapreds ((constraint1 ))
:extrapreds ((constraint0 ))
:formula
(flet ($x638 (and constraint0 constraint1 constraint2 constraint3 constraint4 constraint5 constraint6 constraint7 constraint8 constraint9 constraint10 constraint11 constraint12 constraint13 constraint14 constraint15 constraint16 constraint17 constraint18 constraint19 constraint20 constraint21 constraint22 constraint23 constraint24 constraint25 constraint26 constraint27 constraint28 constraint29 constraint30 constraint31 constraint32 constraint33 constraint34 constraint35 constraint36 constraint37 constraint38 constraint39 constraint40 constraint41 constraint42 constraint43 constraint44 constraint45 constraint46 constraint47 constraint48 constraint49 constraint50 constraint51 constraint52 constraint53 constraint54 constraint55 constraint56 constraint57 constraint58 constraint59 constraint60 constraint61 constraint62 constraint63 constraint64 constraint65 constraint66 constraint67 constraint68 constraint69 constraint70 constraint71 constraint72 constraint73 constraint74 constraint75 constraint76 constraint77 constraint78 constraint79 constraint80 constraint81 constraint82 constraint83 constraint84 constraint85 constraint86 constraint87 constraint88 constraint89 constraint90 constraint91 constraint92 constraint93 constraint94 constraint95 constraint96 constraint97 constraint98 constraint99 constraint100 constraint101 constraint102 constraint103 constraint104 constraint105 constraint106 constraint107 constraint108 constraint109 constraint110 constraint111 constraint112 constraint113 constraint114 constraint115 constraint116 constraint117 constraint118 constraint119 constraint120 constraint121 constraint122 constraint123 constraint124))
(flet ($x386 (= gtINDEX70 (select gtFIELD__bitsForTID0__gtAGG____anonstruct_D_Work_4 gtINDEX69)))
(flet ($x382 (= gtINDEX68 (select gtFIELD__bitsForTID0__gtAGG____anonstruct_D_Work_4 gtINDEX67)))
(flet ($x378 (= gtINDEX66 (select gtFIELD__bitsForTID0__gtAGG____anonstruct_D_Work_4 gtINDEX65)))
(flet ($x374 (= gtINDEX64 (select gtFIELD__bitsForTID0__gtAGG____anonstruct_D_Work_4 gtINDEX63)))
(flet ($x366 (= gtINDEX58 (select gtFIELD__bitsForTID0__gtAGG____anonstruct_D_Work_4 gtINDEX57)))
(flet ($x362 (= gtINDEX56 (select gtFIELD__bitsForTID0__gtAGG____anonstruct_D_Work_4 gtINDEX55)))
(flet ($x358 (= gtINDEX54 (select gtFIELD__bitsForTID0__gtAGG____anonstruct_D_Work_4 gtINDEX53)))
(flet ($x354 (= gtINDEX52 (select gtFIELD__bitsForTID0__gtAGG____anonstruct_D_Work_4 gtINDEX51)))
(flet ($x350 (= gtINDEX50 (select gtFIELD__bitsForTID0__gtAGG____anonstruct_D_Work_4 gtINDEX49)))
(flet ($x345 (= gtINDEX47 (select gtFIELD__bitsForTID0__gtAGG____anonstruct_D_Work_4 gtINDEX46)))
(flet ($x341 (= gtINDEX45 (select gtFIELD__bitsForTID0__gtAGG____anonstruct_D_Work_4 gtINDEX44)))
(flet ($x337 (= gtINDEX43 (select gtFIELD__bitsForTID0__gtAGG____anonstruct_D_Work_4 gtINDEX42)))
(flet ($x333 (= gtINDEX41 (select gtFIELD__bitsForTID0__gtAGG____anonstruct_D_Work_4 gtINDEX40)))
(flet ($x329 (= gtINDEX39 (select gtFIELD__bitsForTID0__gtAGG____anonstruct_D_Work_4 gtINDEX38)))
(flet ($x324 (= gtINDEX36 (select gtFIELD__bitsForTID0__gtAGG____anonstruct_D_Work_4 gtINDEX35)))
(flet ($x319 (= gtINDEX33 (select gtFIELD__bitsForTID0__gtAGG____anonstruct_D_Work_4 gtINDEX32)))
(flet ($x315 (= gtINDEX31 (select gtFIELD__bitsForTID0__gtAGG____anonstruct_D_Work_4 gtINDEX30)))
(flet ($x306 (= gtINDEX24 (select gtFIELD__bitsForTID0__gtAGG____anonstruct_D_Work_4 gtINDEX23)))
(flet ($x302 (= gtINDEX22 (select gtFIELD__bitsForTID0__gtAGG____anonstruct_D_Work_4 gtINDEX21)))
(flet ($x298 (= gtINDEX20 (select gtFIELD__bitsForTID0__gtAGG____anonstruct_D_Work_4 gtINDEX19)))
(flet ($x294 (= gtINDEX18 (select gtFIELD__bitsForTID0__gtAGG____anonstruct_D_Work_4 gtINDEX17)))
(flet ($x290 (= gtINDEX16 (select gtFIELD__bitsForTID0__gtAGG____anonstruct_D_Work_4 gtINDEX15)))
(flet ($x285 (= gtINDEX13 (select gtFIELD__bitsForTID0__gtAGG____anonstruct_D_Work_4 gtINDEX12)))
(flet ($x281 (= gtINDEX11 (select gtFIELD__bitsForTID0__gtAGG____anonstruct_D_Work_4 gtINDEX10)))
(flet ($x277 (= gtINDEX9 (select gtFIELD__bitsForTID0__gtAGG____anonstruct_D_Work_4 gtINDEX8)))
(flet ($x273 (= gtINDEX7 (select gtFIELD__bitsForTID0__gtAGG____anonstruct_D_Work_4 gtINDEX6)))
(flet ($x269 (= gtINDEX5 (select gtFIELD__bitsForTID0__gtAGG____anonstruct_D_Work_4 gtINDEX4)))
(flet ($x265 (= gtINDEX3 (select gtFIELD__bitsForTID0__gtAGG____anonstruct_D_Work_4 gtINDEX2)))
(flet ($x261 (= gtINDEX1 (select gtFIELD__bitsForTID0__gtAGG____anonstruct_D_Work_4 gtINDEX0)))
(let (?x245 (extract[0:0] bv1[32]))
(let (?x255 (store gtFIELD__is_Eng__gtAGG____anonstruct_bitsForTID0_5_1_ gtINDEX70 ?x245))
(flet ($x494 (iff constraint53 (= gtFIELD__is_Eng__gtAGG____anonstruct_bitsForTID0_5_2_ ?x255)))
(let (?x251 (select gtFIELD__is_Eng__gtAGG____anonstruct_bitsForTID0_5_1_ gtINDEX68))
(let (?x246 (store gtFIELD__is_Eng__gtAGG____anonstruct_bitsForTID0_5 gtINDEX66 ?x245))
(flet ($x488 (iff constraint50 (= gtFIELD__is_Eng__gtAGG____anonstruct_bitsForTID0_5_1_ ?x246)))
(let (?x242 (zero_extend[31] (select gtFIELD__is_Eng__gtAGG____anonstruct_bitsForTID0_5 gtINDEX64)))
(let (?x238 (store gtFIELD__sent__gtAGG____anonstruct_D_Work_4_1_ gtINDEX62 bv0[32]))
(flet ($x484 (iff constraint48 (= gtFIELD__sent__gtAGG____anonstruct_D_Work_4_2_ ?x238)))
(let (?x135 (bvmul bv4294967295[32] bv1[32]))
(flet ($x236 (= (select gtFIELD__sent__gtAGG____anonstruct_D_Work_4_1_ gtINDEX61) ?x135))
(flet ($x232 (= (select gtFIELD__sent__gtAGG____anonstruct_D_Work_4_1_ gtINDEX60) bv9[32]))
(flet ($x228 (= (select gtFIELD__sent__gtAGG____anonstruct_D_Work_4_1_ gtINDEX59) bv4[32]))
(let (?x224 (zero_extend[31] (select gtFIELD__is_Eng__gtAGG____anonstruct_bitsForTID0_5 gtINDEX58)))
(let (?x218 (select gtFIELD__is_active_Eng__gtAGG____anonstruct_bitsForTID0_5 gtINDEX56))
(let (?x210 (select gtFIELD__is_PURI__gtAGG____anonstruct_bitsForTID0_5 gtINDEX54))
(let (?x205 (select gtFIELD__is_PURI__gtAGG____anonstruct_bitsForTID0_5 gtINDEX52))
(let (?x200 (select gtFIELD__is_active_PURI__gtAGG____anonstruct_bitsForTID0_5 gtINDEX50))
(flet ($x197 (= (select gtFIELD__sent__gtAGG____anonstruct_D_Work_4_1_ gtINDEX48) bv0[32]))
(let (?x192 (select gtFIELD__is_PVRP__gtAGG____anonstruct_bitsForTID0_5 gtINDEX47))
(let (?x187 (select gtFIELD__is_PVRP__gtAGG____anonstruct_bitsForTID0_5 gtINDEX45))
(let (?x182 (select gtFIELD__is_active_PVRP__gtAGG____anonstruct_bitsForTID0_5 gtINDEX43))
(let (?x176 (select gtFIELD__is_active_PPVARP__gtAGG____anonstruct_bitsForTID0_5 gtINDEX41))
(let (?x170 (select gtFIELD__is_active_PLRI__gtAGG____anonstruct_bitsForTID0_5 gtINDEX39))
(let (?x167 (store gtFIELD__temporalCounter_i1__gtAGG____anonstruct_D_Work_4 gtINDEX37 bv0[32]))
(flet ($x450 (iff constraint31 (= gtFIELD__temporalCounter_i1__gtAGG____anonstruct_D_Work_4_1_ ?x167)))
(let (?x164 (store gtFIELD__is_PAVI__gtAGG____anonstruct_bitsForTID0_5 gtINDEX36 (extract[2:0] bv2[32])))
(flet ($x448 (iff constraint30 (= gtFIELD__is_PAVI__gtAGG____anonstruct_bitsForTID0_5_1_ ?x164)))
(flet ($x161 (= gtFIELD__n_t__gtAGG____anonstruct_D_Work_4_1_ (store gtFIELD__n_t__gtAGG____anonstruct_D_Work_4 gtINDEX34 bv0[32])))
(let (?x156 (select gtFIELD__is_PAVI__gtAGG____anonstruct_bitsForTID0_5 gtINDEX33))
(let (?x151 (select gtFIELD__is_active_PAVI__gtAGG____anonstruct_bitsForTID0_5 gtINDEX31))
(flet ($x143 (= gtFIELD__sent__gtAGG____anonstruct_D_Work_4_1_ (store gtFIELD__sent__gtAGG____anonstruct_D_Work_4 gtINDEX29 ?x135)))
(flet ($x140 (= (select gtFIELD__sent__gtAGG____anonstruct_D_Work_4 gtINDEX28) bv1[32]))
(flet ($x136 (= (select gtFIELD__sent__gtAGG____anonstruct_D_Work_4 gtINDEX27) ?x135))
(flet ($x130 (= (select gtFIELD__sent__gtAGG____anonstruct_D_Work_4 gtINDEX26) bv9[32]))
(flet ($x125 (= (select gtFIELD__sent__gtAGG____anonstruct_D_Work_4 gtINDEX25) bv4[32]))
(let (?x121 (zero_extend[31] (select gtFIELD__is_Eng__gtAGG____anonstruct_bitsForTID0_5 gtINDEX24)))
(let (?x115 (select gtFIELD__is_active_Eng__gtAGG____anonstruct_bitsForTID0_5 gtINDEX22))
(let (?x105 (select gtFIELD__is_PURI__gtAGG____anonstruct_bitsForTID0_5 gtINDEX20))
(let (?x100 (select gtFIELD__is_PURI__gtAGG____anonstruct_bitsForTID0_5 gtINDEX18))
(let (?x95 (select gtFIELD__is_active_PURI__gtAGG____anonstruct_bitsForTID0_5 gtINDEX16))
(flet ($x92 (= (select gtFIELD__sent__gtAGG____anonstruct_D_Work_4 gtINDEX14) bv0[32]))
(let (?x87 (select gtFIELD__is_PVRP__gtAGG____anonstruct_bitsForTID0_5 gtINDEX13))
(let (?x82 (select gtFIELD__is_PVRP__gtAGG____anonstruct_bitsForTID0_5 gtINDEX11))
(let (?x77 (select gtFIELD__is_active_PVRP__gtAGG____anonstruct_bitsForTID0_5 gtINDEX9))
(let (?x71 (select gtFIELD__is_active_PPVARP__gtAGG____anonstruct_bitsForTID0_5 gtINDEX7))
(let (?x65 (select gtFIELD__is_active_PLRI__gtAGG____anonstruct_bitsForTID0_5 gtINDEX5))
(let (?x55 (zero_extend[29] (select gtFIELD__is_PAVI__gtAGG____anonstruct_bitsForTID0_5 gtINDEX3)))
(let (?x48 (select gtFIELD__is_active_PAVI__gtAGG____anonstruct_bitsForTID0_5 gtINDEX1))
(flet ($x637 (and (iff constraint0 (not (= sfEvent_ bv8[32]))) (iff constraint1 (not (= (zero_extend[31] ?x48) bv0[32]))) (iff constraint2 (= ?x55 bv1[32])) (iff constraint3 (not (= sfEvent_ bv2[32]))) (iff constraint4 (not (= sfEvent_ bv3[32]))) (iff constraint5 (not (not (= (zero_extend[31] ?x65) bv0[32])))) (iff constraint6 (not (not (= (zero_extend[31] ?x71) bv0[32])))) (iff constraint7 (not (= (zero_extend[31] ?x77) bv0[32]))) (iff constraint8 (not (= (zero_extend[30] ?x82) bv1[32]))) (iff constraint9 (= (zero_extend[30] ?x87) bv2[32])) (iff constraint10 (not $x92)) (iff constraint11 (not (= (zero_extend[31] ?x95) bv0[32]))) (iff constraint12 (not (= (zero_extend[30] ?x100) bv1[32]))) (iff constraint13 (= (zero_extend[30] ?x105) bv2[32])) (iff constraint14 (not (= sfEvent_ bv4[32]))) (iff constraint15 (not (= sfEvent_ bv5[32]))) (iff constraint16 (not (= (zero_extend[31] ?x115) bv0[32]))) (iff constraint17 (= ?x121 bv1[32])) (iff constraint18 (not $x125)) (iff constraint19 (not $x130)) (iff constraint20 (not $x136)) (iff constraint21 $x140) (iff constraint22 $x143) (iff constraint23 (= sf_previousEvent_1_ sfEvent_)) (iff constraint24 (= sfEvent__1_ bv2[32])) (iff constraint25 (not (= sfEvent__1_ bv8[32]))) (iff constraint26 (not (= (zero_extend[31] ?x151) bv0[32]))) (iff constraint27 (= (zero_extend[29] ?x156) bv1[32])) (iff constraint28 (= sfEvent__1_ bv2[32])) (iff constraint29 $x161) $x448 $x450 (iff constraint32 (not (not (= (zero_extend[31] ?x170) bv0[32])))) (iff constraint33 (not (not (= (zero_extend[31] ?x176) bv0[32])))) (iff constraint34 (not (= (zero_extend[31] ?x182) bv0[32]))) (iff constraint35 (not (= (zero_extend[30] ?x187) bv1[32]))) (iff constraint36 (= (zero_extend[30] ?x192) bv2[32])) (iff constraint37 (not $x197)) (iff constraint38 (not (= (zero_extend[31] ?x200) bv0[32]))) (iff constraint39 (not (= (zero_extend[30] ?x205) bv1[32]))) (iff constraint40 (= (zero_extend[30] ?x210) bv2[32])) (iff constraint41 (not (= sfEvent__1_ bv4[32]))) (iff constraint42 (not (= sfEvent__1_ bv5[32]))) (iff constraint43 (not (= (zero_extend[31] ?x218) bv0[32]))) (iff constraint44 (= ?x224 bv1[32])) (iff constraint45 (not $x228)) (iff constraint46 (not $x232)) (iff constraint47 $x236) $x484 (iff constraint49 (= ?x242 bv1[32])) $x488 (iff constraint51 (= sfEvent__2_ sf_previousEvent_1_)) (iff constraint52 (= (zero_extend[31] ?x251) bv1[32])) $x494 (iff constraint54 (= gtINDEX0 gtAGG__rtDWork)) (iff constraint55 $x261) (iff constraint56 (= gtINDEX2 gtAGG__rtDWork)) (iff constraint57 $x265) (iff constraint58 (= gtINDEX4 gtAGG__rtDWork)) (iff constraint59 $x269) (iff constraint60 (= gtINDEX6 gtAGG__rtDWork)) (iff constraint61 $x273) (iff constraint62 (= gtINDEX8 gtAGG__rtDWork)) (iff constraint63 $x277) (iff constraint64 (= gtINDEX10 gtAGG__rtDWork)) (iff constraint65 $x281) (iff constraint66 (= gtINDEX12 gtAGG__rtDWork)) (iff constraint67 $x285) (iff constraint68 (= gtINDEX14 gtAGG__rtDWork)) (iff constraint69 (= gtINDEX15 gtAGG__rtDWork)) (iff constraint70 $x290) (iff constraint71 (= gtINDEX17 gtAGG__rtDWork)) (iff constraint72 $x294) (iff constraint73 (= gtINDEX19 gtAGG__rtDWork)) (iff constraint74 $x298) (iff constraint75 (= gtINDEX21 gtAGG__rtDWork)) (iff constraint76 $x302) (iff constraint77 (= gtINDEX23 gtAGG__rtDWork)) (iff constraint78 $x306) (iff constraint79 (= gtINDEX25 gtAGG__rtDWork)) (iff constraint80 (= gtINDEX26 gtAGG__rtDWork)) (iff constraint81 (= gtINDEX27 gtAGG__rtDWork)) (iff constraint82 (= gtINDEX28 gtAGG__rtDWork)) (iff constraint83 (= gtINDEX29 gtAGG__rtDWork)) (iff constraint84 (= gtINDEX30 gtAGG__rtDWork)) (iff constraint85 $x315) (iff constraint86 (= gtINDEX32 gtAGG__rtDWork)) (iff constraint87 $x319) (iff constraint88 (= gtINDEX34 gtAGG__rtDWork)) (iff constraint89 (= gtINDEX35 gtAGG__rtDWork)) (iff constraint90 $x324) (iff constraint91 (= gtINDEX37 gtAGG__rtDWork)) (iff constraint92 (= gtINDEX38 gtAGG__rtDWork)) (iff constraint93 $x329) (iff constraint94 (= gtINDEX40 gtAGG__rtDWork)) (iff constraint95 $x333) (iff constraint96 (= gtINDEX42 gtAGG__rtDWork)) (iff constraint97 $x337) (iff constraint98 (= gtINDEX44 gtAGG__rtDWork)) (iff constraint99 $x341) (iff constraint100 (= gtINDEX46 gtAGG__rtDWork)) (iff constraint101 $x345) (iff constraint102 (= gtINDEX48 gtAGG__rtDWork)) (iff constraint103 (= gtINDEX49 gtAGG__rtDWork)) (iff constraint104 $x350) (iff constraint105 (= gtINDEX51 gtAGG__rtDWork)) (iff constraint106 $x354) (iff constraint107 (= gtINDEX53 gtAGG__rtDWork)) (iff constraint108 $x358) (iff constraint109 (= gtINDEX55 gtAGG__rtDWork)) (iff constraint110 $x362) (iff constraint111 (= gtINDEX57 gtAGG__rtDWork)) (iff constraint112 $x366) (iff constraint113 (= gtINDEX59 gtAGG__rtDWork)) (iff constraint114 (= gtINDEX60 gtAGG__rtDWork)) (iff constraint115 (= gtINDEX61 gtAGG__rtDWork)) (iff constraint116 (= gtINDEX62 gtAGG__rtDWork)) (iff constraint117 (= gtINDEX63 gtAGG__rtDWork)) (iff constraint118 $x374) (iff constraint119 (= gtINDEX65 gtAGG__rtDWork)) (iff constraint120 $x378) (iff constraint121 (= gtINDEX67 gtAGG__rtDWork)) (iff constraint122 $x382) (iff constraint123 (= gtINDEX69 gtAGG__rtDWork)) (iff constraint124 $x386)))
(and $x637 $x638)))))))))))))))))))))))))))))))))))))))))))))))))))))))))))))))))))))))))))))))))
)
